<?xml version = "1.0" encoding="UTF-8" standalone="yes"?>
<CPLEXSolution version="1.2">
 <header
   problemName="inst_11_cut_n8"
   objectiveValue="11.637903652726195"
   solutionTypeValue="1"
   solutionTypeString="basic"
   solutionStatusValue="1"
   solutionStatusString="optimal"
   solutionMethodString="dual"
   primalFeasible="1"
   dualFeasible="1"
   simplexIterations="2"
   writeLevel="1"/>
 <quality
   epRHS="9.9999999999999995e-07"
   epOpt="9.9999999999999995e-07"
   maxPrimalInfeas="0"
   maxDualInfeas="0"
   maxPrimalResidual="2.4868995751603507e-14"
   maxDualResidual="3.3544604068753553e-13"
   maxX="1.8755955532027428"
   maxPi="75.535733192164656"
   maxSlack="272.39280042350453"
   maxRedCost="87.857067231339329"
   kappa="686.44040151137563"/>
 <linearConstraints>
  <constraint name="c0" index="0" status="BS" slack="272.39280042350453" dual="-0"/>
  <constraint name="c1" index="1" status="BS" slack="31.73636844891476" dual="-0"/>
  <constraint name="c2" index="2" status="BS" slack="195.55055584965589" dual="-0"/>
  <constraint name="c3" index="3" status="BS" slack="237.41662255161461" dual="-0"/>
  <constraint name="c4" index="4" status="BS" slack="6.70831127580729" dual="-0"/>
  <constraint name="c5" index="5" status="BS" slack="46.638433033350978" dual="-0"/>
  <constraint name="c6" index="6" status="LL" slack="0" dual="0.046585494970884114"/>
  <constraint name="c7" index="7" status="BS" slack="41.328745367919531" dual="-0"/>
  <constraint name="c8" index="8" status="BS" slack="49.822128110111166" dual="-0"/>
  <constraint name="c9" index="9" status="LL" slack="0" dual="-0"/>
  <constraint name="c10" index="10" status="BS" slack="119.43091582848066" dual="-0"/>
  <constraint name="cut_1" index="11" status="BS" slack="0.80995235574376601" dual="-0"/>
  <constraint name="cut_2" index="12" status="BS" slack="0.95023822128109714" dual="-0"/>
  <constraint name="cut_3" index="13" status="BS" slack="0.92535733192165281" dual="-0"/>
  <constraint name="cut_4" index="14" status="BS" slack="0.57014293276865402" dual="-0"/>
  <constraint name="cut_5" index="15" status="BS" slack="1.3800952885124325" dual="-0"/>
  <constraint name="cut_6" index="16" status="BS" slack="1.595023822128109" dual="-0"/>
  <constraint name="cut_7" index="17" status="LL" slack="0" dual="0.6267866596082583"/>
  <constraint name="cut_8" index="18" status="LL" slack="0" dual="75.535733192164656"/>
 </linearConstraints>
 <variables>
  <variable name="x0" index="0" status="LL" value="0" reducedCost="-87.857067231339329"/>
  <variable name="x1" index="1" status="BS" value="0.57014293276866079" reducedCost="0"/>
  <variable name="x2" index="2" status="BS" value="0.31445209105346744" reducedCost="0"/>
  <variable name="x3" index="3" status="BS" value="0" reducedCost="0"/>
  <variable name="s0" index="4" status="LL" value="0" reducedCost="0"/>
  <variable name="s1" index="5" status="LL" value="0" reducedCost="0"/>
  <variable name="s2" index="6" status="LL" value="0" reducedCost="0"/>
  <variable name="s3" index="7" status="LL" value="0" reducedCost="0"/>
  <variable name="s4" index="8" status="LL" value="0" reducedCost="0"/>
  <variable name="s5" index="9" status="LL" value="0" reducedCost="0"/>
  <variable name="s6" index="10" status="LL" value="0" reducedCost="-0.046585494970884114"/>
  <variable name="s7" index="11" status="LL" value="0" reducedCost="0"/>
  <variable name="s8" index="12" status="LL" value="0" reducedCost="0"/>
  <variable name="s9" index="13" status="BS" value="1.8755955532027428" reducedCost="0"/>
  <variable name="s10" index="14" status="LL" value="0" reducedCost="0"/>
 </variables>
 <objectiveValues>
  <objective index="0" name="" value="11.637903652726312"/>
 </objectiveValues>
</CPLEXSolution>
